certificates/rado_a15_c271_N29.cnf
c Rad2 upper bound instance: x1 + 15*x2 - x3 = 271, interval [1,29]
p cnf 29 110
1 15 19 0
-1 -15 -19 0
1 2 18 0
-1 -2 -18 0
2 16 19 0
-2 -16 -19 0
2 3 18 0
-2 -3 -18 0
3 17 19 0
-3 -17 -19 0
3 4 18 0
-3 -4 -18 0
4 18 19 0
-4 -18 -19 0
4 5 18 0
-4 -5 -18 0
5 19 0
-5 -19 0
5 6 18 0
-5 -6 -18 0
6 19 20 0
-6 -19 -20 0
6 7 18 0
-6 -7 -18 0
7 19 21 0
-7 -19 -21 0
7 8 18 0
-7 -8 -18 0
8 19 22 0
-8 -19 -22 0
8 9 18 0
-8 -9 -18 0
9 19 23 0
-9 -19 -23 0
9 10 18 0
-9 -10 -18 0
10 19 24 0
-10 -19 -24 0
10 11 18 0
-10 -11 -18 0
11 19 25 0
-11 -19 -25 0
11 12 18 0
-11 -12 -18 0
12 19 26 0
-12 -19 -26 0
12 13 18 0
-12 -13 -18 0
13 19 27 0
-13 -19 -27 0
13 14 18 0
-13 -14 -18 0
14 19 28 0
-14 -19 -28 0
14 15 18 0
-14 -15 -18 0
15 19 29 0
-15 -19 -29 0
15 16 18 0
-15 -16 -18 0
1 17 0
-1 -17 0
16 17 18 0
-16 -17 -18 0
2 17 18 0
-2 -17 -18 0
17 18 0
-17 -18 0
18 19 0
-18 -19 0
4 17 20 0
-4 -17 -20 0
18 19 20 0
-18 -19 -20 0
5 17 21 0
-5 -17 -21 0
18 20 21 0
-18 -20 -21 0
6 17 22 0
-6 -17 -22 0
18 21 22 0
-18 -21 -22 0
7 17 23 0
-7 -17 -23 0
18 22 23 0
-18 -22 -23 0
8 17 24 0
-8 -17 -24 0
18 23 24 0
-18 -23 -24 0
9 17 25 0
-9 -17 -25 0
18 24 25 0
-18 -24 -25 0
10 17 26 0
-10 -17 -26 0
18 25 26 0
-18 -25 -26 0
11 17 27 0
-11 -17 -27 0
18 26 27 0
-18 -26 -27 0
12 17 28 0
-12 -17 -28 0
18 27 28 0
-18 -27 -28 0
13 17 29 0
-13 -17 -29 0
18 28 29 0
-18 -28 -29 0
