certificates/rado_a15_c271_N29.drat
-28 -29 0
d -28 -18 -29 0
18 -29 0
-29 0
-18 0
17 0
19 0
28 0
-1 0
-12 0
-5 0
-3 0
-14 0
2 0
11 0
13 0
4 0
6 0
15 0
-16 0
-25 0
-27 0
-20 0
-22 0
26 0
24 0
21 0
23 0
-10 0
-8 0
-7 0
-9 0
0
